language Essence 1.3

letting bot_end be [71, 347, 40, 29, 50, 147, 20, 0, 91, 120, 351, 65, 270, 138, 195, 202, 361; int(1..17)]
letting bot_start be [222, 66, 362, 346, 219, 298, 208, 277, 376, 350, 113, 366, 3, 336, 1, 359, 88; int(1..17)]
letting buffer_col be 2
letting buffer_row be 2
letting corridor_size be 1
letting n_shelves_col be 1
letting n_shelves_row be 25
letting shelf_col_size be 2
letting shelf_row_size be 1
